(set-logic ALL)
(declare-fun var0 () String)
(assert (str.in_re var0 (re.++ (re.* (re.* (str.to_re "000"))) (re.++ (re.+ (re.union (str.to_re "11") (str.to_re "222"))) (re.++ (re.* (re.union (str.to_re "3") (str.to_re "444"))) (re.++ (re.union (re.union (str.to_re "55") (str.to_re "666")) (re.+ (str.to_re "77"))) (re.++ (re.union (re.union (str.to_re "888") (str.to_re "99")) (re.* (str.to_re "a"))) (re.++ (re.union (re.* (str.to_re "b")) (re.* (str.to_re "cc"))) (re.++ (re.+ (re.* (str.to_re "ddd"))) (re.++ (re.+ (re.* (str.to_re "ee"))) (re.++ (re.+ (re.* (str.to_re "ff"))) (re.++ (re.+ (re.* (str.to_re "gg"))) (re.++ (re.union (re.union (str.to_re "h") (str.to_re "ii")) (re.union (str.to_re "jjj") (str.to_re "kk"))) (re.++ (re.+ (re.+ (str.to_re "ll"))) (re.++ (re.union (re.union (str.to_re "m") (str.to_re "n")) (re.+ (str.to_re "oo"))) (re.++ (re.* (re.* (str.to_re "ppp"))) (re.++ (re.union (re.* (str.to_re "qqq")) (re.+ (str.to_re "rr"))) (re.++ (re.+ (re.union (str.to_re "ss") (str.to_re "ttt"))) (re.++ (re.union (re.union (str.to_re "uuu") (str.to_re "vvv")) (re.* (str.to_re "ww"))) (re.++ (re.+ (re.* (str.to_re "x"))) (re.++ (re.+ (re.union (str.to_re "yy") (str.to_re "zzz"))) (re.++ (re.+ (re.union (str.to_re "AA") (str.to_re "BB"))) (re.++ (re.+ (re.+ (str.to_re "CC"))) (re.++ (re.union (re.+ (str.to_re "D")) (re.+ (str.to_re "E"))) (re.++ (re.* (re.+ (str.to_re "FF"))) (re.++ (re.* (re.* (str.to_re "GGG"))) (re.++ (re.union (re.* (str.to_re "HHH")) (re.union (str.to_re "II") (str.to_re "JJJ"))) (re.++ (re.* (re.+ (str.to_re "K"))) (re.++ (re.union (re.union (str.to_re "L") (str.to_re "M")) (re.union (str.to_re "NNN") (str.to_re "OOO"))) (re.++ (re.union (re.+ (str.to_re "P")) (re.+ (str.to_re "QQ"))) (re.++ (re.* (re.+ (str.to_re "RRR"))) (re.++ (re.* (re.+ (str.to_re "SSS"))) (re.* (re.+ (str.to_re "T")))))))))))))))))))))))))))))))))))
(assert (not (str.in_re var0 (re.++ (re.+ (re.union (str.to_re "0") (str.to_re "1"))) (re.++ (re.* (re.union (str.to_re "2") (str.to_re "333"))) (re.++ (re.* (re.* (str.to_re "4"))) (re.++ (re.union (re.+ (str.to_re "55")) (re.* (str.to_re "666"))) (re.++ (re.+ (re.* (str.to_re "7"))) (re.++ (re.+ (re.union (str.to_re "8") (str.to_re "9"))) (re.++ (re.* (re.union (str.to_re "aaa") (str.to_re "bbb"))) (re.++ (re.+ (re.* (str.to_re "ccc"))) (re.++ (re.union (re.* (str.to_re "d")) (re.union (str.to_re "ee") (str.to_re "f"))) (re.++ (re.union (re.union (str.to_re "ggg") (str.to_re "h")) (re.* (str.to_re "iii"))) (re.++ (re.+ (re.union (str.to_re "jj") (str.to_re "kkk"))) (re.++ (re.* (re.* (str.to_re "ll"))) (re.++ (re.+ (re.* (str.to_re "mm"))) (re.++ (re.union (re.union (str.to_re "n") (str.to_re "o")) (re.+ (str.to_re "ppp"))) (re.++ (re.+ (re.union (str.to_re "qq") (str.to_re "r"))) (re.++ (re.union (re.+ (str.to_re "s")) (re.union (str.to_re "t") (str.to_re "u"))) (re.++ (re.union (re.union (str.to_re "vvv") (str.to_re "ww")) (re.* (str.to_re "xx"))) (re.++ (re.union (re.* (str.to_re "yyy")) (re.union (str.to_re "zz") (str.to_re "AA"))) (re.++ (re.* (re.+ (str.to_re "BBB"))) (re.++ (re.* (re.union (str.to_re "CC") (str.to_re "DD"))) (re.++ (re.* (re.union (str.to_re "E") (str.to_re "F"))) (re.++ (re.* (re.* (str.to_re "GGG"))) (re.++ (re.union (re.union (str.to_re "HHH") (str.to_re "III")) (re.union (str.to_re "J") (str.to_re "K"))) (re.++ (re.union (re.union (str.to_re "LLL") (str.to_re "M")) (re.union (str.to_re "N") (str.to_re "OOO"))) (re.++ (re.union (re.union (str.to_re "PPP") (str.to_re "Q")) (re.union (str.to_re "RRR") (str.to_re "S"))) (re.++ (re.+ (re.union (str.to_re "TTT") (str.to_re "U"))) (re.++ (re.+ (re.* (str.to_re "VV"))) (re.++ (re.+ (re.+ (str.to_re "W"))) (re.++ (re.union (re.+ (str.to_re "XX")) (re.* (str.to_re "YYY"))) (re.++ (re.+ (re.union (str.to_re "ZZ") (str.to_re "!!!"))) (re.union (re.+ (str.to_re """""")) (re.* (str.to_re "#"))))))))))))))))))))))))))))))))))))
(check-sat)